
<<< setup


<<< generate

Version identifier: 12.10.0.0 | 2019-11-26 | 843d4de2ae
CPXPARAM_TimeLimit                               1200
Tried aggregator 3 times.
MIP Presolve eliminated 5101172 rows and 2871013 columns.
MIP Presolve modified 424268 coefficients.
Aggregator did 817 substitutions.
Reduced MIP has 141061 rows, 139720 columns, and 911156 nonzeros.
Reduced MIP has 139670 binaries, 0 generals, 0 SOSs, and 0 indicators.
Presolve time = 8.13 sec. (4854.25 ticks)
Found incumbent of value 6846.000000 after 13.72 sec. (6823.94 ticks)
Elapsed time = 58.45 sec. (10001.51 ticks) for 29% of probing (2895 vars fixed)
Probing fixed 2904 vars, tightened 0 bounds.
Probing time = 75.53 sec. (12989.66 ticks)
Tried aggregator 1 time.
Detecting symmetries...
MIP Presolve eliminated 2904 rows and 2904 columns.
Reduced MIP has 138157 rows, 136816 columns, and 891533 nonzeros.
Reduced MIP has 136766 binaries, 0 generals, 0 SOSs, and 0 indicators.
Presolve time = 1.03 sec. (547.59 ticks)
Probing time = 0.59 sec. (75.48 ticks)
Clique table members: 493772.
MIP emphasis: balance optimality and feasibility.
MIP search method: dynamic search.
Parallel mode: deterministic, using up to 4 threads.
Root relaxation solution time = 9.56 sec. (5770.61 ticks)

        Nodes                                         Cuts/
   Node  Left     Objective  IInf  Best Integer    Best Bound    ItCnt     Gap

*     0+    0                         6846.0000   123716.0000              --- 
      0     0    67724.0000   485     6846.0000    67724.0000    17703  889.25%
*     0+    0                        17252.0000    67724.0000           292.56%
      0     0    67724.0000   485    17252.0000       Cuts: 7    29967  292.56%
      0     0    67724.0000   485    17252.0000     Cuts: 799    37392  292.56%
      0     0    67724.0000   485    17252.0000    Cuts: 3280    48706  292.56%
Heuristic still looking.
Detecting symmetries...
      0     2    67724.0000   205    17252.0000    67724.0000    48706  292.56%
Elapsed time = 646.63 sec. (228695.33 ticks, tree = 0.02 MB, solutions = 2)
      1     3    67724.0000   449    17252.0000    67724.0000    63407  292.56%
      2     4    67724.0000   369    17252.0000    67724.0000    84093  292.56%
      3     5    67724.0000   432    17252.0000    67724.0000    84831  292.56%
      4     3    67724.0000   195    17252.0000    67724.0000    48736  292.56%
      5     7    67724.0000   287    17252.0000    67724.0000    87546  292.56%
      6     8    67724.0000   302    17252.0000    67724.0000    90006  292.56%
      7     9    67724.0000   282    17252.0000    67724.0000    92698  292.56%
      8    10    67724.0000   297    17252.0000    67724.0000    94634  292.56%
      9     4    67724.0000   405    17252.0000    67724.0000    81486  292.56%
     11     9    67724.0000   343    17252.0000    67724.0000   145202  292.56%
Elapsed time = 868.39 sec. (292567.03 ticks, tree = 0.15 MB, solutions = 2)
     13    15    67724.0000   311    17252.0000    67724.0000   215782  292.56%
     14     5    67724.0000   309    17252.0000    67724.0000   107090  292.56%
     15    10    67724.0000   406    17252.0000    67724.0000   189841  292.56%
     16    16    67724.0000   340    17252.0000    67724.0000   255681  292.56%
     17    17    67724.0000   367    17252.0000    67724.0000   304149  292.56%
     19    16    67724.0000   456    17252.0000    67724.0000   254314  292.56%
     21    18    67724.0000   365    17252.0000    67724.0000   321644  292.56%
     22    22    67724.0000   653    17252.0000    67724.0000   396588  292.56%
     23    18    67724.0000   349    17252.0000    67724.0000   332749  292.56%
     24    19    67724.0000   421    17252.0000    67724.0000   380093  292.56%
Elapsed time = 1097.23 sec. (353136.98 ticks, tree = 0.35 MB, solutions = 2)
     25    23    67724.0000   613    17252.0000    67724.0000   417969  292.56%
     27    28    67724.0000   373    17252.0000    67724.0000   530015  292.56%
     28    29    67724.0000   308    17252.0000    67724.0000   568984  292.56%

Implied bound cuts applied:  1744
Flow cuts applied:  86
Mixed integer rounding cuts applied:  8

Root node processing (before b&c):
  Real time             =  637.00 sec. (226134.02 ticks)
Parallel b&c, 4 threads:
  Real time             =  563.58 sec. (157967.47 ticks)
  Sync time (average)   =   60.27 sec.
  Wait time (average)   =    0.00 sec.
                          ------------
Total (root+branch&cut) = 1200.58 sec. (384101.50 ticks)

<<< solve


OBJECTIVE: 17252

<<< post process


<<< done

